# PARAMETROS
param N:= 3; # Cantidad de tareas
param M:= 4; # Cantidad de personas
param U:=
1 1 1800
1 2 1700
1 3 1750
1 4 1600
2 1 2100
2 2 2200
2 3 2000
2 4 2300
3 1 2300
3 2 2250
3 3 2400
3 4 2300;